##------CONJUNTOS
set D := D1 D2 D3 D4;
set K := 1 2;

set I := F1 F2 F3 F4 F5 F6 F7 F8 F9 F10 F11 F12 F13 F14 F15 F16 F17 F18 F19 F20;

# F1 -> Excel 410, Comuna 4
# F2 -> Excel 418, Comuna 4
# F3 -> Excel 406, Comuna 4
# F4 -> Excel 411, Comuna 4
# F5 -> Excel 1774, Comuna 17
# F6 -> Excel 1785, Comuna 17
# F7 -> Excel 1701, Comuna 17
# F8 -> Excel 1702, Comuna 17
# F9 -> Excel 1212, Comuna 12
# F10 -> Excel 1202, Comuna 12
# F11 -> Excel 1208, Comuna 12
# F12 -> Excel 1205, Comuna 12
# F13 -> Excel 1502, Comuna 15
# F14 -> Excel 1504, Comuna 15
# F15 -> Excel 1503, Comuna 15
# F16 -> Excel 1501, Comuna 15
# F17 -> Excel 910, Comuna 9
# F18 -> Excel 904, Comuna 9
# F19 -> Excel 906, Comuna 9
# F20 -> Excel 909, Comuna 9

# Clústeres
set C := C1 C2 C3 C4 C5;
set IC[C1] := F1 F2 F3 F4;
set IC[C2] := F5 F6 F7 F8;
set IC[C3] := F9 F10 F11 F12;
set IC[C4] := F13 F14 F15 F16;
set IC[C5] := F17 F18 F19 F20;

# Número de vehículos por tipo y depósito
set R[D1,1] := V1 V2 V3 V4;
set R[D1,2] := K1 K2;
set R[D2,1] := V5 V6 V7 V8;
set R[D2,2] := K3;
set R[D3,1] := V9 V10 V11 V12;
set R[D3,2] := K4;
set R[D4,1] := V13 V14 V15 V16;
set R[D4,2] := K5 K6;

##------PARAMETROS GLOBALES
param Vel := 25;

##------CAPACIDAD DE VEHÍCULOS (agentes que pueden transportar)
param q :=
1 5
2 10
;

##------POLICÍAS DISPONIBLES en cada depósito
param h :=
D1 40
D2 30
D3 30
D4 40
;

##------VEHÍCULOS DISPONIBLES por tipo y depósito
param v:
	1	2 :=
D1	4	2
D2	4	1
D3	4	1
D4	4	2
;

##-----DISTANCIAS ENTRE NODOS [km]
param dist:
	F1	F2	F3	F4	F5	F6	F7	F8	F9	F10	F11	F12	F13	F14	F15	F16	F17	F18	F19	F20	D1	D2	D3	D4 :=
F1	0	1.94	2.16	1.14	11.82	11.27	13.41	9.39	5.72	5.15	6.52	5.87	8.65	9.25	8.33	8.61	3.98	5.1	5.09	4.14	4.69	3.82	9.45	7.41
F2	1.94	0	2.81	1.81	12.8	12.26	14.4	10.38	6.63	6.02	7.42	6.8	9.51	10.16	9.2	9.51	4.96	6.07	6.07	5.1	5.64	3.52	10.37	8.12
F3	2.16	2.81	0	2.34	11.19	10.96	13.02	9.06	4.85	4.2	5.61	5.07	7.67	8.37	7.37	7.7	3.93	5.07	4.94	4.16	4.75	3.28	9.49	6.26
F4	1.14	1.81	2.34	0	11.98	11.4	13.54	9.52	5.91	5.33	6.71	6.04	8.84	9.43	8.52	8.79	4.1	5.2	5.21	4.24	4.78	3.88	9.53	7.6
F5	11.82	12.8	11.19	11.98	0	3.9	3.97	4.33	7.42	8.12	6.81	7.11	5.75	4.58	5.74	5.17	9.03	8.22	8.0	9.0	8.69	13.04	6.73	7.94
F6	11.27	12.26	10.96	11.4	3.9	0	3.16	2.85	7.79	8.45	7.49	7.38	7.39	6.34	7.2	6.66	8.25	7.19	7.14	8.13	7.65	13.12	4.15	9.26
F7	13.41	14.4	13.02	13.54	3.97	3.16	0	4.97	9.62	10.3	9.18	9.23	8.58	7.43	8.49	7.92	10.4	9.37	9.29	10.3	9.84	15.11	6.18	10.68
F8	9.39	10.38	9.06	9.52	4.33	2.85	4.97	0	5.99	6.61	5.77	5.56	6.11	5.24	5.85	5.37	6.38	5.35	5.26	6.27	5.82	11.23	3.56	7.72
F9	5.72	6.63	4.85	5.91	7.42	7.79	9.62	5.99	0	1.65	1.75	1.38	3.93	4.48	3.58	3.83	3.94	4.15	3.75	4.12	4.34	6.56	7.44	3.53
F10	5.15	6.02	4.2	5.33	8.12	8.45	10.3	6.61	1.65	0	2.36	2.01	4.45	5.11	4.13	4.45	3.78	4.24	3.87	4.0	4.33	5.86	7.9	3.59
F11	6.52	7.42	5.61	6.71	6.81	7.49	9.18	5.77	1.75	2.36	0	1.8	3.12	3.7	2.77	3.04	4.67	4.72	4.32	4.83	4.97	7.21	7.52	3.13
F12	5.87	6.8	5.07	6.04	7.11	7.38	9.23	5.56	1.38	2.01	1.8	0	3.93	4.34	3.56	3.73	3.82	3.88	3.48	3.97	4.11	6.89	7.02	3.85
F13	8.65	9.51	7.67	8.84	5.75	7.39	8.58	6.11	3.93	4.45	3.12	3.93	0	2.12	1.33	1.69	6.79	6.66	6.28	6.93	6.98	8.96	8.42	3.17
F14	9.25	10.16	8.37	9.43	4.58	6.34	7.43	5.24	4.48	5.11	3.7	4.34	2.12	0	2.14	1.63	7.04	6.68	6.33	7.13	7.07	9.87	7.71	4.32
F15	8.33	9.2	7.37	8.52	5.74	7.2	8.49	5.85	3.58	4.13	2.77	3.56	1.33	2.14	0	1.52	6.41	6.27	5.89	6.54	6.6	8.74	8.1	3.16
F16	8.61	9.51	7.7	8.79	5.17	6.66	7.92	5.37	3.83	4.45	3.04	3.73	1.69	1.63	1.52	0	6.5	6.24	5.87	6.6	6.6	9.18	7.71	3.73
F17	3.98	4.96	3.93	4.1	9.03	8.25	10.4	6.38	3.94	3.78	4.67	3.82	6.79	7.04	6.41	6.5	0	2.09	2.06	1.21	1.78	6.27	6.51	6.42
F18	5.1	6.07	5.07	5.2	8.22	7.19	9.37	5.35	4.15	4.24	4.72	3.88	6.66	6.68	6.27	6.24	2.09	0	1.34	1.91	1.43	7.4	5.37	6.74
F19	5.09	6.07	4.94	5.21	8.0	7.14	9.29	5.26	3.75	3.87	4.32	3.48	6.28	6.33	5.89	5.87	2.06	1.34	0	1.96	1.69	7.25	5.52	6.34
F20	4.14	5.1	4.16	4.24	9.0	8.13	10.3	6.27	4.12	4.0	4.83	3.97	6.93	7.13	6.54	6.6	1.21	1.91	1.96	0	1.54	6.49	6.31	6.63
D1	4.69	5.64	4.75	4.78	8.69	7.65	9.84	5.82	4.34	4.33	4.97	4.11	6.98	7.07	6.6	6.6	1.78	1.43	1.69	1.54	0	7.09	5.73	6.9
D2	3.82	3.52	3.28	3.88	13.04	13.12	15.11	11.23	6.56	5.86	7.21	6.89	8.96	9.87	8.74	9.18	6.27	7.4	7.25	6.49	7.09	0	11.82	7.08
D3	9.45	10.37	9.49	9.53	6.73	4.15	6.18	3.56	7.44	7.9	7.52	7.02	8.42	7.71	8.1	7.71	6.51	5.37	5.52	6.31	5.73	11.82	0	9.66
D4	7.41	8.12	6.26	7.6	7.94	9.26	10.68	7.72	3.53	3.59	3.13	3.85	3.17	4.32	3.16	3.73	6.42	6.74	6.34	6.63	6.9	7.08	9.66	0
;

#### DEMANDA DE POLICÍAS (por nodo i)
param dem :=
F1 125
F2 125
F3 75
F4 50
F5 50
F6 75
F7 25
F8 100
F9 25
F10 125
F11 100
F12 125
F13 25
F14 50
F15 50
F16 50
F17 75
F18 50
F19 25
F20 100
;

#### DEMANDA DE VEHÍCULOS (por tipo)
param mu:
    1   2 :=
 F1  0  3
 F2  0  3
 F3  0  2
 F4  0  1
 F5  0  2
 F6  0  1
 F7  0  1
 F8  0  3
 F9  0  1
 F10  0  2
 F11  0  2
 F12  0  2
 F13  0  1
 F14  0  1
 F15  0  2
 F16  0  2
 F17  0  1
 F18  0  1
 F19  0  1
 F20  0  2
;

#### TIEMPOS DE SERVICIO [horas]
param s :=
F1 1.91
F2 2.33
F3 1.27
F4 0.90
F5 1.00
F6 1.47
F7 0.37
F8 2.00
F9 0.48
F10 1.91
F11 1.59
F12 1.86
F13 0.45
F14 0.74
F15 0.86
F16 0.90
F17 1.42
F18 0.77
F19 0.46
F20 1.71
;

#### VENTANAS DE TIEMPO [horas]
param alpha :=
F1 9
F2 14
F3 10
F4 13
F5 14
F6 13
F7 10
F8 12
F9 7
F10 6
F11 8
F12 7
F13 12
F14 11
F15 11
F16 9
F17 14
F18 6
F19 9
F20 9
;

param beta :=
F1 18
F2 19
F3 19
F4 22
F5 23
F6 22
F7 14
F8 17
F9 16
F10 15
F11 18
F12 14
F13 22
F14 21
F15 21
F16 17
F17 22
F18 10
F19 13
F20 15
;

#### PRIORIDAD DE LOS NODOS
param P :=
F1 0.203
F2 0.344
F3 0.391
F4 0.443
F5 0.327
F6 0.180
F7 0.263
F8 0.260
F9 0.358
F10 0.283
F11 0.359
F12 0.268
F13 0.699
F14 0.612
F15 0.643
F16 0.586
F17 0.415
F18 0.364
F19 0.381
F20 0.259
;

